data/ILP/exact/instance001.lp
Minimize
obj: 26y_1 + 46y_2 + 74y_3 + 70y_4 + 10y_5 + 110y_6 + 85y_7 + 24y_8 + 66y_9 + 162y_10 + 64y_11 + 50y_12 + 12y_13 + 88y_14 + 92y_15 + 144y_16 + 160y_17 + 30y_18 + 160y_19 + 6y_20 + 42y_21 + 62y_22 + 64y_23 + 30y_24 + 44y_25 + 26y_26 + 88y_27 + 2y_28 + 42y_29 + 2y_30 + 70y_31 + 160y_32 + 92y_33 + 44y_34 + 162y_35 + 160y_36 + 88y_37 + 42y_38 + 2y_39 + 18y_40 + 88y_41 + 144y_42 + 160y_43 + 26y_44 + 2y_45 + 146y_46 + 88y_47 + 42y_48 + 62y_49 + 62y_50 + 146y_51 + 2y_52 + 88y_53 + 26y_54 + 2y_55 + 76y_56 + 102y_57 + 190y_58 + 146y_59 + 24y_60 + 66y_61 + 26y_62 + 18y_63 + 52y_64 + 2y_65 + 52y_66 + 18y_67 + 64y_68 + 75y_69 + 62y_70 + 62y_71 + 26y_72 + 28y_73 + 72y_74 + 92y_75 + 160y_76 + 88y_77 + 24y_78 + 146y_79 + 88y_80 + 18y_81 + 2y_82 + 64y_83 + 42y_84 + 62y_85 + 6y_86 + 88y_87 + 144y_88 + 18y_89 + 52y_90 + 18y_91 + 50y_92 + 72y_93 + 74y_94 + 46y_95 + 144y_96 + 18y_97 + 88y_98 + 160y_99 + 74y_100 + 92y_101 + 72y_102 + 72y_103 + 76y_104 + 2y_105 + 24y_106 + 26y_107 + 88y_108 + 18y_109 + 82y_110 + 190y_111 + 50y_112 + 76y_113 + 72y_114 + 2y_115 + 24y_116 + 18y_117 + 88y_118 + 75y_119 + 85y_120 + 88y_121 + 2y_122 + 102y_123 + 72y_124 + 2y_125 + 18y_126 + 52y_127 + 42y_128 + 2y_129 + 42y_130 + 12y_131 + 62y_132 + 26y_133 + 24y_134 + 66y_135 + 146y_136 + 2y_137 + 26y_138 + 76y_139 + 28y_140 + 46y_141 + 146y_142 + 24y_143 + 88y_144 + 26y_145 + 82y_146 + 62y_147 + 50y_148 + 72y_149 + 72y_150 + 2y_151 + 24y_152 + 10y_153 + 66y_154 + 74y_155 + 110y_156 + 160y_157 + 42y_158 + 2y_159 + 46y_160
Subject To
x_161 = 3
x_162 = 1
x_163 = 1
x_164 = 1
x_1 - 4y_1 <= 0
x_2 - 4y_2 <= 0
x_3 - 4y_3 <= 0
x_4 - 4y_4 <= 0
x_5 - 4y_5 <= 0
x_6 - 4y_6 <= 0
x_7 - 4y_7 <= 0
x_8 - 4y_8 <= 0
x_9 - 4y_9 <= 0
x_10 - 4y_10 <= 0
x_11 - 4y_11 <= 0
x_12 - 4y_12 <= 0
x_13 - 4y_13 <= 0
x_14 - 4y_14 <= 0
x_15 - 4y_15 <= 0
x_16 - 4y_16 <= 0
x_17 - 4y_17 <= 0
x_18 - 4y_18 <= 0
x_19 - 4y_19 <= 0
x_20 - 4y_20 <= 0
x_21 - 4y_21 <= 0
x_22 - 4y_22 <= 0
x_23 - 4y_23 <= 0
x_24 - 4y_24 <= 0
x_25 - 4y_25 <= 0
x_26 - 4y_26 <= 0
x_27 - 4y_27 <= 0
x_28 - 4y_28 <= 0
x_29 - 4y_29 <= 0
x_30 - 4y_30 <= 0
x_31 - 4y_31 <= 0
x_32 - 4y_32 <= 0
x_33 - 4y_33 <= 0
x_34 - 4y_34 <= 0
x_35 - 4y_35 <= 0
x_36 - 4y_36 <= 0
x_37 - 4y_37 <= 0
x_38 - 4y_38 <= 0
x_39 - 4y_39 <= 0
x_40 - 4y_40 <= 0
x_41 - 4y_41 <= 0
x_42 - 4y_42 <= 0
x_43 - 4y_43 <= 0
x_44 - 4y_44 <= 0
x_45 - 4y_45 <= 0
x_46 - 4y_46 <= 0
x_47 - 4y_47 <= 0
x_48 - 4y_48 <= 0
x_49 - 4y_49 <= 0
x_50 - 4y_50 <= 0
x_51 - 4y_51 <= 0
x_52 - 4y_52 <= 0
x_53 - 4y_53 <= 0
x_54 - 4y_54 <= 0
x_55 - 4y_55 <= 0
x_56 - 4y_56 <= 0
x_57 - 4y_57 <= 0
x_58 - 4y_58 <= 0
x_59 - 4y_59 <= 0
x_60 - 4y_60 <= 0
x_61 - 4y_61 <= 0
x_62 - 4y_62 <= 0
x_63 - 4y_63 <= 0
x_64 - 4y_64 <= 0
x_65 - 4y_65 <= 0
x_66 - 4y_66 <= 0
x_67 - 4y_67 <= 0
x_68 - 4y_68 <= 0
x_69 - 4y_69 <= 0
x_70 - 4y_70 <= 0
x_71 - 4y_71 <= 0
x_72 - 4y_72 <= 0
x_73 - 4y_73 <= 0
x_74 - 4y_74 <= 0
x_75 - 4y_75 <= 0
x_76 - 4y_76 <= 0
x_77 - 4y_77 <= 0
x_78 - 4y_78 <= 0
x_79 - 4y_79 <= 0
x_80 - 4y_80 <= 0
x_81 - 4y_81 <= 0
x_82 - 4y_82 <= 0
x_83 - 4y_83 <= 0
x_84 - 4y_84 <= 0
x_85 - 4y_85 <= 0
x_86 - 4y_86 <= 0
x_87 - 4y_87 <= 0
x_88 - 4y_88 <= 0
x_89 - 4y_89 <= 0
x_90 - 4y_90 <= 0
x_91 - 4y_91 <= 0
x_92 - 4y_92 <= 0
x_93 - 4y_93 <= 0
x_94 - 4y_94 <= 0
x_95 - 4y_95 <= 0
x_96 - 4y_96 <= 0
x_97 - 4y_97 <= 0
x_98 - 4y_98 <= 0
x_99 - 4y_99 <= 0
x_100 - 4y_100 <= 0
x_101 - 4y_101 <= 0
x_102 - 4y_102 <= 0
x_103 - 4y_103 <= 0
x_104 - 4y_104 <= 0
x_105 - 4y_105 <= 0
x_106 - 4y_106 <= 0
x_107 - 4y_107 <= 0
x_108 - 4y_108 <= 0
x_109 - 4y_109 <= 0
x_110 - 4y_110 <= 0
x_111 - 4y_111 <= 0
x_112 - 4y_112 <= 0
x_113 - 4y_113 <= 0
x_114 - 4y_114 <= 0
x_115 - 4y_115 <= 0
x_116 - 4y_116 <= 0
x_117 - 4y_117 <= 0
x_118 - 4y_118 <= 0
x_119 - 4y_119 <= 0
x_120 - 4y_120 <= 0
x_121 - 4y_121 <= 0
x_122 - 4y_122 <= 0
x_123 - 4y_123 <= 0
x_124 - 4y_124 <= 0
x_125 - 4y_125 <= 0
x_126 - 4y_126 <= 0
x_127 - 4y_127 <= 0
x_128 - 4y_128 <= 0
x_129 - 4y_129 <= 0
x_130 - 4y_130 <= 0
x_131 - 4y_131 <= 0
x_132 - 4y_132 <= 0
x_133 - 4y_133 <= 0
x_134 - 4y_134 <= 0
x_135 - 4y_135 <= 0
x_136 - 4y_136 <= 0
x_137 - 4y_137 <= 0
x_138 - 4y_138 <= 0
x_139 - 4y_139 <= 0
x_140 - 4y_140 <= 0
x_141 - 4y_141 <= 0
x_142 - 4y_142 <= 0
x_143 - 4y_143 <= 0
x_144 - 4y_144 <= 0
x_145 - 4y_145 <= 0
x_146 - 4y_146 <= 0
x_147 - 4y_147 <= 0
x_148 - 4y_148 <= 0
x_149 - 4y_149 <= 0
x_150 - 4y_150 <= 0
x_151 - 4y_151 <= 0
x_152 - 4y_152 <= 0
x_153 - 4y_153 <= 0
x_154 - 4y_154 <= 0
x_155 - 4y_155 <= 0
x_156 - 4y_156 <= 0
x_157 - 4y_157 <= 0
x_158 - 4y_158 <= 0
x_159 - 4y_159 <= 0
x_160 - 4y_160 <= 0
x_1 - x_72 +  x_2 - x_95 +  x_161 = 0
x_5 - x_153 +  x_3 - x_94 +  x_4 - x_31 = 0
x_7 - x_120 +  x_6 - x_156 = 0
x_8 - x_152 +  x_9 - x_135 +  x_10 - x_35 = 0
x_13 - x_131 +  x_11 - x_68 +  x_12 - x_148 = 0
x_15 - x_33 +  x_16 - x_88 +  x_14 - x_41 +  x_17 - x_76 = 0
x_20 - x_86 +  x_18 - x_24 +  x_19 - x_157 = 0
x_23 - x_83 +  x_21 - x_130 +  x_22 - x_85 = 0
-x_163 +  x_24 - x_18 +  x_25 - x_34 = 0
x_28 - x_45 +  x_27 - x_121 +  x_26 - x_54 = 0
x_30 - x_159 +  x_29 - x_38 +  x_31 - x_4 = 0
x_32 - x_99 +  x_34 - x_25 +  x_35 - x_10 +  x_33 - x_15 = 0
x_36 - x_43 +  x_37 - x_77 = 0
x_38 - x_29 +  x_40 - x_81 +  x_39 - x_129 = 0
x_42 - x_96 +  x_43 - x_36 +  x_41 - x_14 = 0
x_47 - x_53 +  x_44 - x_138 +  x_46 - x_142 +  x_45 - x_28 = 0
x_50 - x_132 +  x_48 - x_84 +  x_49 - x_71 = 0
x_52 - x_122 +  x_51 - x_79 +  x_53 - x_47 = 0
x_56 - x_113 +  x_54 - x_26 +  x_55 - x_137 = 0
x_58 - x_111 +  x_57 - x_123 = 0
x_59 - x_136 +  x_61 - x_154 +  x_60 - x_134 +  x_62 - x_145 = 0
x_64 - x_66 +  x_65 - x_82 +  x_63 - x_126 = 0
x_68 - x_11 +  x_66 - x_64 +  x_67 - x_91 = 0
x_70 - x_147 +  x_69 - x_119 +  x_71 - x_49 = 0
x_73 - x_140 +  x_72 - x_1 +  x_74 - x_150 = 0
x_75 - x_101 +  x_77 - x_37 +  x_76 - x_17 = 0
x_80 - x_144 +  x_78 - x_116 +  x_79 - x_51 = 0
x_81 - x_40 +  x_83 - x_23 +  x_82 - x_65 = 0
x_86 - x_20 +  x_84 - x_48 +  x_85 - x_22 = 0
x_89 - x_109 +  x_88 - x_16 +  x_87 - x_98 = 0
x_91 - x_67 +  x_90 - x_127 +  x_92 - x_112 = 0
x_94 - x_3 +  x_95 - x_2 +  x_93 - x_102 = 0
x_96 - x_42 +  x_97 - x_117 +  x_98 - x_87 = 0
x_101 - x_75 +  x_99 - x_32 +  x_100 - x_155 = 0
x_105 - x_115 +  x_104 - x_139 +  x_102 - x_93 +  x_103 - x_149 = 0
x_106 - x_143 +  x_107 - x_133 +  x_109 - x_89 +  x_108 - x_118 = 0
x_110 - x_146 +  x_112 - x_92 +  x_111 - x_58 = 0
x_115 - x_105 +  x_113 - x_56 +  x_114 - x_124 = 0
x_117 - x_97 +  x_116 - x_78 +  x_118 - x_108 = 0
x_119 - x_69 - x_162 +  x_120 - x_7 = 0
x_122 - x_52 +  x_121 - x_27 = 0
x_123 - x_57 +  x_125 - x_151 +  x_124 - x_114 = 0
x_128 - x_158 +  x_127 - x_90 +  x_129 - x_39 +  x_126 - x_63 = 0
x_131 - x_13 +  x_130 - x_21 +  x_132 - x_50 = 0
x_133 - x_107 +  x_134 - x_60 +  x_135 - x_9 = 0
x_138 - x_44 +  x_137 - x_55 +  x_136 - x_59 +  x_139 - x_104 = 0
-x_164 +  x_141 - x_160 +  x_140 - x_73 = 0
x_144 - x_80 +  x_142 - x_46 +  x_143 - x_106 +  x_145 - x_62 = 0
x_147 - x_70 +  x_148 - x_12 +  x_146 - x_110 = 0
x_149 - x_103 +  x_151 - x_125 +  x_150 - x_74 = 0
x_152 - x_8 +  x_154 - x_61 +  x_153 - x_5 = 0
x_155 - x_100 +  x_157 - x_19 +  x_156 - x_6 = 0
x_159 - x_30 +  x_158 - x_128 +  x_160 - x_141 = 0
Bounds
x_1 >= 0
x_2 >= 0
x_3 >= 0
x_4 >= 0
x_5 >= 0
x_6 >= 0
x_7 >= 0
x_8 >= 0
x_9 >= 0
x_10 >= 0
x_11 >= 0
x_12 >= 0
x_13 >= 0
x_14 >= 0
x_15 >= 0
x_16 >= 0
x_17 >= 0
x_18 >= 0
x_19 >= 0
x_20 >= 0
x_21 >= 0
x_22 >= 0
x_23 >= 0
x_24 >= 0
x_25 >= 0
x_26 >= 0
x_27 >= 0
x_28 >= 0
x_29 >= 0
x_30 >= 0
x_31 >= 0
x_32 >= 0
x_33 >= 0
x_34 >= 0
x_35 >= 0
x_36 >= 0
x_37 >= 0
x_38 >= 0
x_39 >= 0
x_40 >= 0
x_41 >= 0
x_42 >= 0
x_43 >= 0
x_44 >= 0
x_45 >= 0
x_46 >= 0
x_47 >= 0
x_48 >= 0
x_49 >= 0
x_50 >= 0
x_51 >= 0
x_52 >= 0
x_53 >= 0
x_54 >= 0
x_55 >= 0
x_56 >= 0
x_57 >= 0
x_58 >= 0
x_59 >= 0
x_60 >= 0
x_61 >= 0
x_62 >= 0
x_63 >= 0
x_64 >= 0
x_65 >= 0
x_66 >= 0
x_67 >= 0
x_68 >= 0
x_69 >= 0
x_70 >= 0
x_71 >= 0
x_72 >= 0
x_73 >= 0
x_74 >= 0
x_75 >= 0
x_76 >= 0
x_77 >= 0
x_78 >= 0
x_79 >= 0
x_80 >= 0
x_81 >= 0
x_82 >= 0
x_83 >= 0
x_84 >= 0
x_85 >= 0
x_86 >= 0
x_87 >= 0
x_88 >= 0
x_89 >= 0
x_90 >= 0
x_91 >= 0
x_92 >= 0
x_93 >= 0
x_94 >= 0
x_95 >= 0
x_96 >= 0
x_97 >= 0
x_98 >= 0
x_99 >= 0
x_100 >= 0
x_101 >= 0
x_102 >= 0
x_103 >= 0
x_104 >= 0
x_105 >= 0
x_106 >= 0
x_107 >= 0
x_108 >= 0
x_109 >= 0
x_110 >= 0
x_111 >= 0
x_112 >= 0
x_113 >= 0
x_114 >= 0
x_115 >= 0
x_116 >= 0
x_117 >= 0
x_118 >= 0
x_119 >= 0
x_120 >= 0
x_121 >= 0
x_122 >= 0
x_123 >= 0
x_124 >= 0
x_125 >= 0
x_126 >= 0
x_127 >= 0
x_128 >= 0
x_129 >= 0
x_130 >= 0
x_131 >= 0
x_132 >= 0
x_133 >= 0
x_134 >= 0
x_135 >= 0
x_136 >= 0
x_137 >= 0
x_138 >= 0
x_139 >= 0
x_140 >= 0
x_141 >= 0
x_142 >= 0
x_143 >= 0
x_144 >= 0
x_145 >= 0
x_146 >= 0
x_147 >= 0
x_148 >= 0
x_149 >= 0
x_150 >= 0
x_151 >= 0
x_152 >= 0
x_153 >= 0
x_154 >= 0
x_155 >= 0
x_156 >= 0
x_157 >= 0
x_158 >= 0
x_159 >= 0
x_160 >= 0
x_161 >= 0
x_162 >= 0
x_163 >= 0
x_164 >= 0
General
Binaries
y_1
y_2
y_3
y_4
y_5
y_6
y_7
y_8
y_9
y_10
y_11
y_12
y_13
y_14
y_15
y_16
y_17
y_18
y_19
y_20
y_21
y_22
y_23
y_24
y_25
y_26
y_27
y_28
y_29
y_30
y_31
y_32
y_33
y_34
y_35
y_36
y_37
y_38
y_39
y_40
y_41
y_42
y_43
y_44
y_45
y_46
y_47
y_48
y_49
y_50
y_51
y_52
y_53
y_54
y_55
y_56
y_57
y_58
y_59
y_60
y_61
y_62
y_63
y_64
y_65
y_66
y_67
y_68
y_69
y_70
y_71
y_72
y_73
y_74
y_75
y_76
y_77
y_78
y_79
y_80
y_81
y_82
y_83
y_84
y_85
y_86
y_87
y_88
y_89
y_90
y_91
y_92
y_93
y_94
y_95
y_96
y_97
y_98
y_99
y_100
y_101
y_102
y_103
y_104
y_105
y_106
y_107
y_108
y_109
y_110
y_111
y_112
y_113
y_114
y_115
y_116
y_117
y_118
y_119
y_120
y_121
y_122
y_123
y_124
y_125
y_126
y_127
y_128
y_129
y_130
y_131
y_132
y_133
y_134
y_135
y_136
y_137
y_138
y_139
y_140
y_141
y_142
y_143
y_144
y_145
y_146
y_147
y_148
y_149
y_150
y_151
y_152
y_153
y_154
y_155
y_156
y_157
y_158
y_159
y_160
End
