data/solutions/instance001.txt
VALUE503
7 29
8 28
7 9
14 43
17 29
17 24
1 25
14 28
8 29
24 40
43 53
25 47
47 53

